nNurses = 149;
nHours = 32;
minHours = 5;
maxHours = 20;
maxConsec = 13;
maxPresence = 14;
demand = [40, 38, 36, 34, 38, 35, 32, 29, 33, 35, 31, 28, 28, 33, 33, 38, 33, 34, 35, 38, 39, 35, 31, 35, 32, 32, 33, 30, 31, 33, 37, 38];
